projected/problems_b25_r0_d7_m100_s666/_DIMACS/b25_d7_r0_s666_078.cnf
p cnf 294 532 25
c p show 1 2 3 4 5 6 7 8 9 10 11 12 13 14 15 16 17 18 19 20 21 22 23 24 25
-26 -12 0
-26 15 0
-27 18 24 0
-28 27 26 0
-29 -14 1 0
-30 -2 0
-30 15 0
-31 30 29 0
-32 31 0
-32 28 0
-33 -18 0
-33 20 0
-34 8 1 0
-35 34 33 0
-36 -8 0
-36 -1 0
-37 18 -20 0
-38 37 36 0
-39 38 0
-39 35 0
-40 19 10 0
-41 -8 0
-42 41 40 0
-43 42 0
-43 39 0
-44 43 32 0
-45 -10 17 0
-46 -13 0
-46 14 0
-47 46 45 0
-48 -17 0
-48 20 0
-49 -20 -18 0
-50 49 0
-50 48 0
-51 50 47 0
-52 12 0
-52 -25 0
-53 -23 -5 0
-54 5 23 0
-55 54 0
-55 53 0
-56 55 52 0
-57 8 0
-57 2 0
-58 9 16 0
-59 58 57 0
-60 59 0
-60 56 0
-61 -8 -2 0
-62 -9 0
-62 -16 0
-63 62 0
-63 61 0
-64 -12 25 0
-65 23 0
-65 5 0
-66 -5 0
-66 -23 0
-67 66 65 0
-68 67 0
-68 64 0
-69 68 0
-69 63 0
-70 69 60 0
-71 70 51 0
-72 71 44 0
-73 21 -22 0
-74 22 -21 0
-75 74 0
-75 73 0
-76 -24 0
-76 -25 0
-77 76 75 0
-78 20 10 0
-79 -22 -19 0
-80 79 78 0
-81 22 0
-81 19 0
-82 -20 0
-82 -10 0
-83 82 81 0
-84 83 0
-84 80 0
-85 84 0
-85 77 0
-86 -4 0
-86 -15 0
-87 7 0
-87 -22 0
-88 87 86 0
-89 8 0
-89 6 0
-90 11 19 0
-91 90 89 0
-92 91 88 0
-93 92 0
-93 85 0
-94 13 0
-94 -11 0
-95 11 0
-95 -13 0
-96 95 94 0
-97 15 0
-97 4 0
-98 86 97 0
-99 98 96 0
-100 18 0
-100 6 0
-101 -15 0
-101 -24 0
-102 101 100 0
-103 102 0
-103 99 0
-104 -13 11 0
-105 -11 13 0
-106 105 0
-106 104 0
-107 -24 0
-107 19 0
-108 107 106 0
-109 -23 0
-109 -8 0
-110 8 0
-110 23 0
-111 110 109 0
-112 17 0
-112 22 0
-113 -22 0
-113 -17 0
-114 113 112 0
-115 114 111 0
-116 115 108 0
-117 23 8 0
-118 -8 -23 0
-119 118 0
-119 117 0
-120 -17 -22 0
-121 22 17 0
-122 121 0
-122 120 0
-123 122 0
-123 119 0
-124 24 -19 0
-125 124 0
-125 96 0
-126 125 123 0
-127 126 0
-127 116 0
-128 127 0
-128 103 0
-129 128 93 0
-130 129 72 0
-131 -21 0
-131 22 0
-132 -22 0
-132 21 0
-133 132 131 0
-134 24 25 0
-135 134 0
-135 133 0
-136 81 0
-136 82 0
-137 78 0
-137 79 0
-138 137 136 0
-139 138 135 0
-140 4 15 0
-141 -7 22 0
-142 141 0
-142 140 0
-143 -8 -6 0
-144 -11 0
-144 -19 0
-145 144 0
-145 143 0
-146 145 0
-146 142 0
-147 146 139 0
-148 -15 -4 0
-149 140 0
-149 148 0
-150 149 0
-150 106 0
-151 -18 -6 0
-152 15 24 0
-153 152 0
-153 151 0
-154 153 150 0
-155 123 0
-155 125 0
-156 108 0
-156 115 0
-157 156 155 0
-158 157 154 0
-159 158 0
-159 147 0
-160 12 -15 0
-161 -18 0
-161 -24 0
-162 161 0
-162 160 0
-163 14 0
-163 -1 0
-164 2 -15 0
-165 164 0
-165 163 0
-166 165 162 0
-167 36 0
-167 37 0
-168 33 0
-168 34 0
-169 168 167 0
-170 -19 0
-170 -10 0
-171 8 0
-172 171 0
-172 170 0
-173 172 169 0
-174 173 0
-174 166 0
-175 10 0
-175 -17 0
-176 13 -14 0
-177 176 0
-177 175 0
-178 17 -20 0
-179 20 0
-179 18 0
-180 179 178 0
-181 180 0
-181 177 0
-182 63 68 0
-183 56 59 0
-184 183 0
-184 182 0
-185 184 0
-185 181 0
-186 185 0
-186 174 0
-187 186 159 0
-188 187 0
-188 130 0
-189 18 -2 0
-190 -3 0
-190 -23 0
-191 190 0
-191 189 0
-192 24 -7 0
-193 7 -24 0
-194 193 0
-194 192 0
-195 -18 0
-195 -16 0
-196 195 0
-196 194 0
-197 196 0
-197 191 0
-198 -24 0
-198 7 0
-199 -7 0
-199 24 0
-200 199 198 0
-201 18 16 0
-202 201 200 0
-203 -18 0
-203 2 0
-204 3 23 0
-205 204 203 0
-206 205 0
-206 202 0
-207 206 197 0
-208 -24 11 0
-209 7 0
-209 4 0
-210 209 208 0
-211 -6 -1 0
-212 -24 0
-212 -15 0
-213 212 211 0
-214 213 210 0
-215 214 207 0
-216 -18 0
-216 15 0
-217 -19 0
-217 9 0
-218 217 216 0
-219 -4 18 0
-220 6 0
-220 -15 0
-221 220 219 0
-222 221 0
-222 218 0
-223 -10 16 0
-224 -16 10 0
-225 224 0
-225 223 0
-226 10 0
-226 7 0
-227 226 225 0
-228 9 0
-228 -19 0
-229 -19 -17 0
-230 229 228 0
-231 230 227 0
-232 231 222 0
-233 232 215 0
-234 -11 0
-234 -20 0
-235 212 0
-235 234 0
-236 24 0
-236 -21 0
-237 -14 -2 0
-238 237 0
-238 236 0
-239 238 0
-239 235 0
-240 19 0
-240 13 0
-241 -23 0
-241 -16 0
-242 241 240 0
-243 -25 -4 0
-244 25 13 0
-245 244 0
-245 243 0
-246 245 0
-246 242 0
-247 25 0
-247 4 0
-248 -25 0
-248 -13 0
-249 248 247 0
-250 -19 -13 0
-251 23 16 0
-252 251 0
-252 250 0
-253 252 0
-253 249 0
-254 253 246 0
-255 254 0
-255 239 0
-256 249 252 0
-257 242 245 0
-258 257 0
-258 256 0
-259 11 20 0
-260 24 15 0
-261 260 259 0
-262 -24 21 0
-263 14 0
-263 2 0
-264 263 262 0
-265 264 261 0
-266 265 0
-266 258 0
-267 266 255 0
-268 22 -18 0
-269 -19 0
-269 -21 0
-270 269 0
-270 268 0
-271 -17 0
-271 19 0
-272 -11 0
-272 -25 0
-273 272 0
-273 271 0
-274 273 0
-274 270 0
-275 17 -19 0
-276 11 25 0
-277 276 275 0
-278 -22 0
-278 18 0
-279 19 21 0
-280 279 278 0
-281 280 0
-281 277 0
-282 281 274 0
-283 -18 -15 0
-284 16 4 0
-285 284 283 0
-286 8 17 0
-287 -20 0
-287 -1 0
-288 1 0
-288 20 0
-289 288 287 0
-290 289 286 0
-291 290 0
-291 285 0
-292 291 282 0
-293 292 267 0
-294 293 233 0
294 188 0
-75 -133 0
-76 -134 0
-77 -135 0
-135 -77 0
-79 -81 0
-81 -79 0
-82 -78 0
-78 -82 0
-84 -138 0
-138 -84 0
-139 -85 0
-85 -139 0
-140 -86 0
-86 -140 0
-141 -87 0
-87 -141 0
-88 -142 0
-142 -88 0
-143 -89 0
-144 -90 0
-145 -91 0
-146 -92 0
-92 -146 0
-93 -147 0
-147 -93 0
-106 -96 0
-149 -98 0
-150 -99 0
-151 -100 0
-100 -151 0
-152 -101 0
-101 -152 0
-102 -153 0
-153 -102 0
-154 -103 0
-119 -111 0
-122 -114 0
-123 -115 0
-96 -106 0
-107 -124 0
-124 -107 0
-125 -108 0
-108 -125 0
-127 -157 0
-157 -127 0
-158 -128 0
-159 -129 0
-160 -26 0
-161 -27 0
-162 -28 0
-28 -162 0
-29 -163 0
-30 -164 0
-31 -165 0
-32 -166 0
-36 -34 0
-33 -37 0
-39 -169 0
-169 -39 0
-40 -170 0
-170 -40 0
-171 -41 0
-172 -42 0
-173 -43 0
-43 -173 0
-44 -174 0
-174 -44 0
-175 -45 0
-176 -46 0
-177 -47 0
-47 -177 0
-48 -178 0
-178 -48 0
-179 -49 0
-180 -50 0
-50 -180 0
-51 -181 0
-181 -51 0
-57 -61 0
-61 -57 0
-62 -58 0
-63 -59 0
-59 -63 0
-52 -64 0
-55 -67 0
-56 -68 0
-68 -56 0
-184 -70 0
-185 -71 0
-186 -72 0
-72 -186 0
-194 -200 0
-200 -194 0
-201 -195 0
-202 -196 0
-196 -202 0
-203 -189 0
-189 -203 0
-204 -190 0
-190 -204 0
-191 -205 0
-205 -191 0
-212 -260 0
-247 -243 0
-243 -247 0
-248 -244 0
-244 -248 0
-245 -249 0
-250 -240 0
-240 -250 0
-241 -251 0
-242 -252 0
-252 -242 0
-258 -254 0
-254 -258 0
-259 -234 0
-260 -212 0
-261 -235 0
-262 -236 0
-236 -262 0
-263 -237 0
-237 -263 0
-238 -264 0
-264 -238 0
-265 -239 0
-271 -275 0
-275 -271 0
-276 -272 0
-277 -273 0
-273 -277 0
-268 -278 0
-278 -268 0
-269 -279 0
-279 -269 0
-280 -270 0
