projected/problems_b25_r0_d7_m100_s666/b25_d7_r0_s666_078.smt2
(set-logic QF_UF)
(declare-fun A0 () Bool)
(declare-fun A1 () Bool)
(declare-fun A2 () Bool)
(declare-fun A3 () Bool)
(declare-fun A4 () Bool)
(declare-fun A5 () Bool)
(declare-fun A6 () Bool)
(declare-fun A7 () Bool)
(declare-fun A8 () Bool)
(declare-fun A9 () Bool)
(declare-fun A10 () Bool)
(declare-fun A11 () Bool)
(declare-fun A12 () Bool)
(declare-fun A13 () Bool)
(declare-fun A14 () Bool)
(declare-fun A15 () Bool)
(declare-fun A16 () Bool)
(declare-fun A17 () Bool)
(declare-fun A18 () Bool)
(declare-fun A19 () Bool)
(declare-fun A20 () Bool)
(declare-fun A21 () Bool)
(declare-fun A22 () Bool)
(declare-fun A23 () Bool)
(declare-fun A24 () Bool)
(assert (let ((.def_0 (not A20))) (let ((.def_1 (not A21))) (let ((.def_2 (= .def_1 .def_0))) (let ((.def_3 (not A24))) (let ((.def_4 (not A23))) (let ((.def_5 (and .def_4 .def_3))) (let ((.def_6 (or .def_5 .def_2))) (let ((.def_7 (not .def_6))) (let ((.def_8 (not A18))) (let ((.def_9 (or .def_1 .def_8))) (let ((.def_10 (not .def_9))) (let ((.def_11 (not A9))) (let ((.def_12 (not A19))) (let ((.def_13 (and .def_12 .def_11))) (let ((.def_14 (not .def_13))) (let ((.def_15 (= .def_14 .def_10))) (let ((.def_16 (not .def_15))) (let ((.def_17 (or .def_16 .def_7))) (let ((.def_18 (not .def_17))) (let ((.def_19 (or A3 A14))) (let ((.def_20 (not .def_19))) (let ((.def_21 (not A6))) (let ((.def_22 (or .def_21 A21))) (let ((.def_23 (not .def_22))) (let ((.def_24 (or .def_23 .def_20))) (let ((.def_25 (not .def_24))) (let ((.def_26 (not A5))) (let ((.def_27 (not A7))) (let ((.def_28 (or .def_27 .def_26))) (let ((.def_29 (not A10))) (let ((.def_30 (and .def_29 .def_8))) (let ((.def_31 (and .def_30 .def_28))) (let ((.def_32 (and .def_31 .def_25))) (let ((.def_33 (not .def_32))) (let ((.def_34 (and .def_33 .def_18))) (let ((.def_35 (not .def_34))) (let ((.def_36 (= A10 A12))) (let ((.def_37 (not A3))) (let ((.def_38 (= .def_37 A14))) (let ((.def_39 (and .def_38 .def_36))) (let ((.def_40 (not A17))) (let ((.def_41 (or .def_40 .def_26))) (let ((.def_42 (not .def_41))) (let ((.def_43 (or A14 A23))) (let ((.def_44 (not .def_43))) (let ((.def_45 (or .def_44 .def_42))) (let ((.def_46 (not .def_45))) (let ((.def_47 (or .def_46 .def_39))) (let ((.def_48 (not A22))) (let ((.def_49 (= A7 .def_48))) (let ((.def_50 (= .def_1 A16))) (let ((.def_51 (and .def_50 .def_49))) (let ((.def_52 (not .def_36))) (let ((.def_53 (and .def_4 A18))) (let ((.def_54 (not .def_53))) (let ((.def_55 (and .def_54 .def_52))) (let ((.def_56 (not .def_55))) (let ((.def_57 (= .def_56 .def_51))) (let ((.def_58 (not .def_57))) (let ((.def_59 (or .def_58 .def_47))) (let ((.def_60 (and .def_59 .def_35))) (let ((.def_61 (not A14))) (let ((.def_62 (or A11 .def_61))) (let ((.def_63 (and .def_40 .def_4))) (let ((.def_64 (and .def_63 .def_62))) (let ((.def_65 (not .def_64))) (let ((.def_66 (not A13))) (let ((.def_67 (or .def_66 A0))) (let ((.def_68 (not A1))) (let ((.def_69 (and .def_68 A14))) (let ((.def_70 (or .def_69 .def_67))) (let ((.def_71 (and .def_70 .def_65))) (let ((.def_72 (not A0))) (let ((.def_73 (and .def_27 .def_72))) (let ((.def_74 (and .def_40 A19))) (let ((.def_75 (= .def_74 .def_73))) (let ((.def_76 (not .def_75))) (let ((.def_77 (or A18 A9))) (let ((.def_78 (not .def_77))) (let ((.def_79 (or A7 A7))) (let ((.def_80 (and .def_79 .def_78))) (let ((.def_81 (or .def_80 .def_76))) (let ((.def_82 (not .def_81))) (let ((.def_83 (or .def_82 .def_71))) (let ((.def_84 (not .def_83))) (let ((.def_85 (not A16))) (let ((.def_86 (and A9 .def_85))) (let ((.def_87 (or A12 .def_66))) (let ((.def_88 (and .def_87 .def_86))) (let ((.def_89 (not .def_88))) (let ((.def_90 (and .def_85 A19))) (let ((.def_91 (not .def_90))) (let ((.def_92 (and A19 A17))) (let ((.def_93 (or .def_92 .def_91))) (let ((.def_94 (not .def_93))) (let ((.def_95 (or .def_94 .def_89))) (let ((.def_96 (not .def_95))) (let ((.def_97 (and A7 A1))) (let ((.def_98 (not .def_97))) (let ((.def_99 (not A15))) (let ((.def_100 (not A8))) (let ((.def_101 (and .def_100 .def_99))) (let ((.def_102 (and .def_101 .def_98))) (let ((.def_103 (not .def_102))) (let ((.def_104 (and A11 .def_3))) (let ((.def_105 (not A4))) (let ((.def_106 (= .def_105 A22))) (let ((.def_107 (or .def_106 .def_104))) (let ((.def_108 (not .def_107))) (let ((.def_109 (= .def_108 .def_103))) (let ((.def_110 (and .def_109 .def_96))) (let ((.def_111 (and .def_110 .def_84))) (let ((.def_112 (not .def_111))) (let ((.def_113 (= .def_112 .def_60))) (let ((.def_114 (not .def_113))) (let ((.def_115 (= .def_21 .def_4))) (let ((.def_116 (not .def_115))) (let ((.def_117 (or A17 A15))) (let ((.def_118 (or .def_117 .def_116))) (let ((.def_119 (not .def_118))) (let ((.def_120 (and .def_40 A1))) (let ((.def_121 (not .def_120))) (let ((.def_122 (or A2 A22))) (let ((.def_123 (not .def_122))) (let ((.def_124 (and .def_123 .def_121))) (let ((.def_125 (not .def_124))) (let ((.def_126 (= .def_125 .def_119))) (let ((.def_127 (or .def_4 A10))) (let ((.def_128 (not .def_127))) (let ((.def_129 (or .def_21 .def_37))) (let ((.def_130 (and .def_129 .def_128))) (let ((.def_131 (or .def_26 .def_72))) (let ((.def_132 (and .def_4 .def_61))) (let ((.def_133 (or .def_132 .def_131))) (let ((.def_134 (not .def_133))) (let ((.def_135 (and .def_134 .def_130))) (let ((.def_136 (and .def_135 .def_126))) (let ((.def_137 (and .def_40 A14))) (let ((.def_138 (not .def_137))) (let ((.def_139 (and .def_8 A8))) (let ((.def_140 (not .def_139))) (let ((.def_141 (and .def_140 .def_138))) (let ((.def_142 (not .def_141))) (let ((.def_143 (and A3 .def_40))) (let ((.def_144 (not .def_143))) (let ((.def_145 (or .def_26 A14))) (let ((.def_146 (not .def_145))) (let ((.def_147 (or .def_146 .def_144))) (let ((.def_148 (and .def_147 .def_142))) (let ((.def_149 (not .def_148))) (let ((.def_150 (= A15 A9))) (let ((.def_151 (and A9 A6))) (let ((.def_152 (or .def_151 .def_150))) (let ((.def_153 (or .def_100 A18))) (let ((.def_154 (not .def_153))) (let ((.def_155 (and A18 A16))) (let ((.def_156 (not .def_155))) (let ((.def_157 (or .def_156 .def_154))) (let ((.def_158 (or .def_157 .def_152))) (let ((.def_159 (not .def_158))) (let ((.def_160 (and .def_159 .def_149))) (let ((.def_161 (and .def_160 .def_136))) (let ((.def_162 (and A24 A3))) (let ((.def_163 (not .def_162))) (let ((.def_164 (not A12))) (let ((.def_165 (and .def_3 .def_164))) (let ((.def_166 (not .def_165))) (let ((.def_167 (and .def_166 .def_163))) (let ((.def_168 (or .def_8 .def_164))) (let ((.def_169 (not .def_168))) (let ((.def_170 (and .def_48 .def_99))) (let ((.def_171 (or .def_170 .def_169))) (let ((.def_172 (not .def_171))) (let ((.def_173 (= .def_172 .def_167))) (let ((.def_174 (not .def_173))) (let ((.def_175 (or A10 A19))) (let ((.def_176 (not .def_132))) (let ((.def_177 (or .def_176 .def_175))) (let ((.def_178 (or .def_4 A20))) (let ((.def_179 (not .def_178))) (let ((.def_180 (and A13 A1))) (let ((.def_181 (not .def_180))) (let ((.def_182 (and .def_181 .def_179))) (let ((.def_183 (not .def_182))) (let ((.def_184 (or .def_183 .def_177))) (let ((.def_185 (= .def_184 .def_174))) (let ((.def_186 (not .def_185))) (let ((.def_187 (and .def_85 A18))) (let ((.def_188 (not .def_187))) (let ((.def_189 (or A10 A24))) (let ((.def_190 (or .def_189 .def_188))) (let ((.def_191 (not .def_190))) (let ((.def_192 (or A21 .def_40))) (let ((.def_193 (not .def_192))) (let ((.def_194 (and .def_8 .def_0))) (let ((.def_195 (not .def_194))) (let ((.def_196 (or .def_195 .def_193))) (let ((.def_197 (= .def_196 .def_191))) (let ((.def_198 (not .def_197))) (let ((.def_199 (or .def_40 .def_61))) (let ((.def_200 (or A15 A3))) (let ((.def_201 (or .def_200 .def_199))) (let ((.def_202 (not .def_201))) (let ((.def_203 (and .def_27 .def_85))) (let ((.def_204 (not .def_203))) (let ((.def_205 (= A0 .def_12))) (let ((.def_206 (not .def_205))) (let ((.def_207 (or .def_206 .def_204))) (let ((.def_208 (not .def_207))) (let ((.def_209 (or .def_208 .def_202))) (let ((.def_210 (not .def_209))) (let ((.def_211 (or .def_210 .def_198))) (let ((.def_212 (or .def_211 .def_186))) (let ((.def_213 (not .def_212))) (let ((.def_214 (and .def_213 .def_161))) (let ((.def_215 (and .def_214 .def_114))) (let ((.def_216 (not .def_215))) .def_216))))))))))))))))))))))))))))))))))))))))))))))))))))))))))))))))))))))))))))))))))))))))))))))))))))))))))))))))))))))))))))))))))))))))))))))))))))))))))))))))))))))))))))))))))))))))))))))))))))))))))))))))))))))))))
(check-sat)
